;; ===================== PROJECTED CANON (QE) =====================
;; Each clause below is entailed by Proj = ∃W.F over the canonical vocabulary.
;; Units appear first for clarity; OR-clauses (SAT-filtered) follow.
;; ==================================================================

;; Unit Bool constraints (entailed)
(assert patient_has_finding_of_weight_steady_inthepast6months)
(assert patient_has_finding_of_non_smoker_inthepast6months)
(assert patient_has_finding_of_activity_exercise_pattern_inthepast3months)
(assert patients_liver_function_is_normal_now)
(assert patients_renal_function_is_normal_now)
